webassembly/ejemplos_dzn/11/folder11_json_96.dzn
TERM = { '.', 's(2)', 's(5)', 's(4)', 'in_1', 'local_0', 'local_1', 'in_6', 'in_2', 'in_4', 'in_3', 's(1)', 's(0)', 'in_5', 's(3)', 'in_0'};
null = '.';
s = 11;
n = 12;
ndeps = 7;
max_registers_sz = 5;
NR = 2;
registers = [|'local_0', 'in_3', |'local_1', 's(0)'|];
dependencies = [|'call[function_index(0)]_0', 'i32.load8_s_4', |'call[function_index(0)]_0', 'i32.load8_s_5', |'call[function_index(0)]_0', 'i32.load8_s_6', |'i32.load8_s_4', 'i32.store_8', |'i32.load8_s_5', 'i32.store_8', |'i32.load8_s_6', 'i32.store_8', |'i32.store_8', 'call[function_index(1)]_10'|];
GET_ENUM = { GET1, GET2, GET3, GET4, GET5, GET6, GET7};
SET_ENUM = { SET1, SET2, SET3, SET4, SET5, SET6, SET7};
TEE_ENUM = { TEE1, TEE2, TEE3, TEE4, TEE5, TEE6, TEE7};
N = 8;
OP = { 'call[function_index(0)]_0', 'i32.const_0', 'call[function_index(1)]_10', 'i32.sub_0', 'i32.load8_s_4', 'i32.load8_s_5', 'i32.load8_s_6', 'i32.store_8' };
in_ops = [3, 0, 2, 2, 1, 1, 1, 2 ];
out_ops = [0, 1, 1, 1, 1, 1, 1, 0 ];
in1 = ['in_0', '.', 's(5)', 'in_4', 's(0)', 's(1)', 's(2)', 's(0)' ];
in2 = ['in_1', '.', 'in_6', 'in_5', '.', '.', '.', 's(3)' ];
in3 = ['in_2', '.', '.', '.', '.', '.', '.', '.' ];
out1 = ['.', 's(5)', 's(4)', 's(0)', 's(1)', 's(2)', 's(3)', '.' ];
out2 = ['.', '.', '.', '.', '.', '.', '.', '.' ];
out3 = ['.', '.', '.', '.', '.', '.', '.', '.' ];
comm = [false, false, false, false, false, false, false, false ];
gas = [1, 1, 1, 1, 1, 1, 1, 1 ];
sz = [1, 1, 1, 1, 1, 1, 1, 1 ];
stor = [true, false, true, false, false, false, false, true ];
lb = [ 1, 1, 1, 1, 1, 1, 1, 1 ];
ub = [ 11, 11, 11, 11, 11, 11, 11, 11 ];
startstack = [ 'in_0', 'in_1', 'in_2', 'in_3', 'in_4', 'in_5', 'in_6', null, null, null, null, null ];
endstack = [ 's(4)', null, null, null, null, null, null, null, null, null, null, null ];
