webassembly/ejemplos_results/11/folder11_json_96.txt
value = 11;
fgas = [1, 1, 1, 1, 1, 1, 1, 1, 1, 1, 1];
fsize = [1, 1, 1, 1, 1, 1, 1, 1, 1, 1, 1];
states = 
[|   in_0,   in_1, in_2, in_3, in_4, in_5, in_6, '.', '.', '.', '.', '.'
 | 's(0)',   in_4, in_5, in_6,  '.',  '.',  '.', '.', '.', '.', '.', '.'
 | 's(0)',   in_4, in_5, in_6,  '.',  '.',  '.', '.', '.', '.', '.', '.'
 | 's(1)',   in_4, in_5, in_6,  '.',  '.',  '.', '.', '.', '.', '.', '.'
 | 's(2)',   in_4, in_5, in_6,  '.',  '.',  '.', '.', '.', '.', '.', '.'
 | 's(3)',   in_4, in_5, in_6,  '.',  '.',  '.', '.', '.', '.', '.', '.'
 |   in_4,   in_5, in_6,  '.',  '.',  '.',  '.', '.', '.', '.', '.', '.'
 | 's(0)', 's(3)',  '.',  '.',  '.',  '.',  '.', '.', '.', '.', '.', '.'
 |   in_3,   in_6,  '.',  '.',  '.',  '.',  '.', '.', '.', '.', '.', '.'
 |   in_6,    '.',  '.',  '.',  '.',  '.',  '.', '.', '.', '.', '.', '.'
 | 's(5)',   in_6,  '.',  '.',  '.',  '.',  '.', '.', '.', '.', '.', '.'
 | 's(4)',    '.',  '.',  '.',  '.',  '.',  '.', '.', '.', '.', '.', '.'
 |];
register_states = 
[| local_0, local_1, '.', '.', '.', '.', '.'
 | local_0, local_1, '.', '.', '.', '.', '.'
 | local_0,  's(0)', '.', '.', '.', '.', '.'
 | local_0,  's(0)', '.', '.', '.', '.', '.'
 | local_0,  's(0)', '.', '.', '.', '.', '.'
 | local_0,  's(0)', '.', '.', '.', '.', '.'
 |  's(3)',  's(0)', '.', '.', '.', '.', '.'
 |  's(3)',  's(0)', '.', '.', '.', '.', '.'
 |  's(3)',  's(0)', '.', '.', '.', '.', '.'
 |    in_3,  's(0)', '.', '.', '.', '.', '.'
 |    in_3,  's(0)', '.', '.', '.', '.', '.'
 |    in_3,  's(0)', '.', '.', '.', '.', '.'
 |];
program = [O('call[function_index(0)]_0'), TEE(TEE2), O('i32.load8_s_4'), O('i32.load8_s_5'), O('i32.load8_s_6'), S(SET1), O('i32.sub_0'), O('i32.store_8'), S(SET1), O('i32.const_0'), O('call[function_index(1)]_10')];
% time elapsed: 0.69 s
----------
==========
% time elapsed: 0.69 s
% [value > 10]
